(set-info :status unknown)
(declare-fun %x () (_ BitVec 43))
(declare-fun mem0 () (_ BitVec 8))
(declare-fun %p1 () (_ BitVec 64))
(declare-fun %p2 () (_ BitVec 64))
(declare-fun |ana_equivalentAddressValues(%p1, %p2)| () (_ BitVec 1))
(assert
 (let ((?x6624 (concat ((_ extract 7 3) mem0) ((_ extract 2 0) %x))))
 (let ((?x1702 (ite (and (and (distinct %p1 (_ bv0 64)) true) (or true true) (= %p2 %p1)) ?x6624 mem0)))
 (let ((?x17801 ((_ extract 10 3) %x)))
 (let (($x22796 (or true true)))
 (let (($x15927 (and (distinct %p1 (_ bv0 64)) true)))
 (let ((?x9853 (ite (and $x15927 $x22796 (= %p2 (bvadd (bvadd %p1 (_ bv1 64)) (_ bv0 64)))) ?x17801 ?x1702)))
 (let ((?x12432 ((_ extract 18 11) %x)))
 (let ((?x8009 (ite (and $x15927 $x22796 (= %p2 (bvadd (bvadd %p1 (_ bv1 64)) (_ bv1 64)))) ?x12432 ?x9853)))
 (let ((?x15172 ((_ extract 26 19) %x)))
 (let ((?x21615 (ite (and $x15927 $x22796 (= %p2 (bvadd (bvadd %p1 (_ bv1 64)) (_ bv2 64)))) ?x15172 ?x8009)))
 (let ((?x22445 ((_ extract 34 27) %x)))
 (let ((?x21475 (ite (and $x15927 $x22796 (= %p2 (bvadd (bvadd %p1 (_ bv1 64)) (_ bv3 64)))) ?x22445 ?x21615)))
 (let ((?x24966 ((_ extract 42 35) %x)))
 (let ((?x7224 (ite (and $x15927 $x22796 (= %p2 (bvadd (bvadd %p1 (_ bv1 64)) (_ bv4 64)))) ?x24966 ?x21475)))
 (let ((?x9136 (ite (and $x15927 $x22796 (= (bvadd (bvadd %p2 (_ bv1 64)) (_ bv0 64)) %p1)) ?x6624 mem0)))
 (let (($x21858 (and $x15927 $x22796 (= (bvadd (bvadd %p2 (_ bv1 64)) (_ bv0 64)) (bvadd (bvadd %p1 (_ bv1 64)) (_ bv0 64))))))
 (let (($x17957 (and $x15927 $x22796 (= (bvadd (bvadd %p2 (_ bv1 64)) (_ bv0 64)) (bvadd (bvadd %p1 (_ bv1 64)) (_ bv1 64))))))
 (let (($x15098 (and $x15927 $x22796 (= (bvadd (bvadd %p2 (_ bv1 64)) (_ bv0 64)) (bvadd (bvadd %p1 (_ bv1 64)) (_ bv2 64))))))
 (let (($x2350 (and $x15927 $x22796 (= (bvadd (bvadd %p2 (_ bv1 64)) (_ bv0 64)) (bvadd (bvadd %p1 (_ bv1 64)) (_ bv3 64))))))
 (let (($x8636 (and $x15927 $x22796 (= (bvadd (bvadd %p2 (_ bv1 64)) (_ bv0 64)) (bvadd (bvadd %p1 (_ bv1 64)) (_ bv4 64))))))
 (let ((?x15971 (ite $x8636 ?x24966 (ite $x2350 ?x22445 (ite $x15098 ?x15172 (ite $x17957 ?x12432 (ite $x21858 ?x17801 ?x9136)))))))
 (let ((?x16717 (ite (and $x15927 $x22796 (= (bvadd (bvadd %p2 (_ bv1 64)) (_ bv1 64)) %p1)) ?x6624 mem0)))
 (let (($x12239 (and $x15927 $x22796 (= (bvadd (bvadd %p2 (_ bv1 64)) (_ bv1 64)) (bvadd (bvadd %p1 (_ bv1 64)) (_ bv0 64))))))
 (let (($x15290 (and $x15927 $x22796 (= (bvadd (bvadd %p2 (_ bv1 64)) (_ bv1 64)) (bvadd (bvadd %p1 (_ bv1 64)) (_ bv1 64))))))
 (let (($x823 (and $x15927 $x22796 (= (bvadd (bvadd %p2 (_ bv1 64)) (_ bv1 64)) (bvadd (bvadd %p1 (_ bv1 64)) (_ bv2 64))))))
 (let (($x16927 (and $x15927 $x22796 (= (bvadd (bvadd %p2 (_ bv1 64)) (_ bv1 64)) (bvadd (bvadd %p1 (_ bv1 64)) (_ bv3 64))))))
 (let (($x4823 (and $x15927 $x22796 (= (bvadd (bvadd %p2 (_ bv1 64)) (_ bv1 64)) (bvadd (bvadd %p1 (_ bv1 64)) (_ bv4 64))))))
 (let ((?x4545 (ite $x4823 ?x24966 (ite $x16927 ?x22445 (ite $x823 ?x15172 (ite $x15290 ?x12432 (ite $x12239 ?x17801 ?x16717)))))))
 (let ((?x310 (ite (and $x15927 $x22796 (= (bvadd (bvadd %p2 (_ bv1 64)) (_ bv2 64)) %p1)) ?x6624 mem0)))
 (let (($x4536 (and $x15927 $x22796 (= (bvadd (bvadd %p2 (_ bv1 64)) (_ bv2 64)) (bvadd (bvadd %p1 (_ bv1 64)) (_ bv0 64))))))
 (let (($x21033 (and $x15927 $x22796 (= (bvadd (bvadd %p2 (_ bv1 64)) (_ bv2 64)) (bvadd (bvadd %p1 (_ bv1 64)) (_ bv1 64))))))
 (let (($x17375 (and $x15927 $x22796 (= (bvadd (bvadd %p2 (_ bv1 64)) (_ bv2 64)) (bvadd (bvadd %p1 (_ bv1 64)) (_ bv2 64))))))
 (let (($x17813 (and $x15927 $x22796 (= (bvadd (bvadd %p2 (_ bv1 64)) (_ bv2 64)) (bvadd (bvadd %p1 (_ bv1 64)) (_ bv3 64))))))
 (let (($x5280 (and $x15927 $x22796 (= (bvadd (bvadd %p2 (_ bv1 64)) (_ bv2 64)) (bvadd (bvadd %p1 (_ bv1 64)) (_ bv4 64))))))
 (let ((?x1174 (ite $x5280 ?x24966 (ite $x17813 ?x22445 (ite $x17375 ?x15172 (ite $x21033 ?x12432 (ite $x4536 ?x17801 ?x310)))))))
 (let ((?x23267 (ite (and $x15927 $x22796 (= (bvadd (bvadd %p2 (_ bv1 64)) (_ bv3 64)) %p1)) ?x6624 mem0)))
 (let (($x4546 (and $x15927 $x22796 (= (bvadd (bvadd %p2 (_ bv1 64)) (_ bv3 64)) (bvadd (bvadd %p1 (_ bv1 64)) (_ bv0 64))))))
 (let (($x7142 (and $x15927 $x22796 (= (bvadd (bvadd %p2 (_ bv1 64)) (_ bv3 64)) (bvadd (bvadd %p1 (_ bv1 64)) (_ bv1 64))))))
 (let (($x20220 (and $x15927 $x22796 (= (bvadd (bvadd %p2 (_ bv1 64)) (_ bv3 64)) (bvadd (bvadd %p1 (_ bv1 64)) (_ bv2 64))))))
 (let (($x3505 (and $x15927 $x22796 (= (bvadd (bvadd %p2 (_ bv1 64)) (_ bv3 64)) (bvadd (bvadd %p1 (_ bv1 64)) (_ bv3 64))))))
 (let (($x22608 (and $x15927 $x22796 (= (bvadd (bvadd %p2 (_ bv1 64)) (_ bv3 64)) (bvadd (bvadd %p1 (_ bv1 64)) (_ bv4 64))))))
 (let ((?x18426 (ite $x22608 ?x24966 (ite $x3505 ?x22445 (ite $x20220 ?x15172 (ite $x7142 ?x12432 (ite $x4546 ?x17801 ?x23267)))))))
 (let ((?x13411 (ite (and $x15927 $x22796 (= (bvadd (bvadd %p2 (_ bv1 64)) (_ bv4 64)) %p1)) ?x6624 mem0)))
 (let (($x21359 (and $x15927 $x22796 (= (bvadd (bvadd %p2 (_ bv1 64)) (_ bv4 64)) (bvadd (bvadd %p1 (_ bv1 64)) (_ bv0 64))))))
 (let (($x5402 (and $x15927 $x22796 (= (bvadd (bvadd %p2 (_ bv1 64)) (_ bv4 64)) (bvadd (bvadd %p1 (_ bv1 64)) (_ bv1 64))))))
 (let (($x20501 (and $x15927 $x22796 (= (bvadd (bvadd %p2 (_ bv1 64)) (_ bv4 64)) (bvadd (bvadd %p1 (_ bv1 64)) (_ bv2 64))))))
 (let (($x565 (and $x15927 $x22796 (= (bvadd (bvadd %p2 (_ bv1 64)) (_ bv4 64)) (bvadd (bvadd %p1 (_ bv1 64)) (_ bv3 64))))))
 (let (($x23851 (and $x15927 $x22796 (= (bvadd (bvadd %p2 (_ bv1 64)) (_ bv4 64)) (bvadd (bvadd %p1 (_ bv1 64)) (_ bv4 64))))))
 (let ((?x23467 (ite $x23851 ?x24966 (ite $x565 ?x22445 (ite $x20501 ?x15172 (ite $x5402 ?x12432 (ite $x21359 ?x17801 ?x13411)))))))
 (let ((?x16334 (concat (concat (concat (concat (concat ?x23467 ?x18426) ?x1174) ?x4545) ?x15971) ((_ extract 2 0) ?x7224))))
 (let (($x18536 (= |ana_equivalentAddressValues(%p1, %p2)| (_ bv1 1))))
 (let (($x385 (and (distinct %p2 (_ bv0 64)) true)))
 (and $x15927 $x22796 $x385 $x22796 $x385 $x22796 (=> $x18536 (= %p1 %p2)) $x18536 (and (distinct ?x16334 %x) true)))))))))))))))))))))))))))))))))))))))))))))))))))))))
(check-sat)
